% clingo version 5.3.0
% Reading from ...rk_instances/benchmark_instance_4-3.lp ...
% Solving...
% Answer: 1
ANSWER
u_piece(1). u_piece(2). u_piece(12). u_piece(16). l_piece(4,3,8). num_u_pieces(4). num_l_pieces(1).
COST 4
OPTIMUM
% 
% Models         : 1
%   Optimum      : yes
% Optimization   : 4
% Calls          : 1
% Time           : 0.004s (Solving: 0.00s 1st Model: 0.00s Unsat: 0.00s)
% CPU Time       : 0.003s
